************************************************************************
file with basedata            : mm38_.bas
initial value random generator: 1343906242
************************************************************************
projects                      :  1
jobs (incl. supersource/sink ):  12
horizon                       :  78
RESOURCES
  - renewable                 :  2   R
  - nonrenewable              :  2   N
  - doubly constrained        :  0   D
************************************************************************
PROJECT INFORMATION:
pronr.  #jobs rel.date duedate tardcost  MPM-Time
    1     10      0        9        9        9
************************************************************************
PRECEDENCE RELATIONS:
jobnr.    #modes  #successors   successors
   1        1          3           2   3   4
   2        3          2           5   6
   3        3          2           5  11
   4        3          1           7
   5        3          2           9  10
   6        3          3           7   9  10
   7        3          1           8
   8        3          1          11
   9        3          1          12
  10        3          1          12
  11        3          1          12
  12        1          0        
************************************************************************
REQUESTS/DURATIONS:
jobnr. mode duration  R 1  R 2  N 1  N 2
------------------------------------------------------------------------
  1      1     0       0    0    0    0
  2      1     3       1   10   10    7
         2     5       1    9    8    7
         3    10       1    8    7    7
  3      1     2       2    2   10    8
         2     6       1    2    8    8
         3     7       1    2    5    8
  4      1     3       5    4    7    9
         2     6       3    2    7    9
         3     6       4    4    7    8
  5      1     1       7    7    9    5
         2     3       5    7    9    4
         3    10       4    6    9    4
  6      1     1      10    7    5    7
         2     3       7    6    5    6
         3    10       6    5    4    6
  7      1     2       8    7    6    4
         2     4       8    4    4    3
         3     8       7    4    3    1
  8      1     2       2    8    5    6
         2     3       2    4    5    6
         3     5       1    2    2    5
  9      1     4       7    3    5   10
         2     4       7    3    7    9
         3     6       7    3    2    9
 10      1     1      10    6    7   10
         2     4       7    5    4    7
         3     8       6    2    4    3
 11      1     1       7    8    5    7
         2     4       3    7    5    5
         3     8       1    6    3    4
 12      1     0       0    0    0    0
************************************************************************
RESOURCEAVAILABILITIES:
  R 1  R 2  N 1  N 2
   11   10   59   64
************************************************************************
MAXIMAL LAGS:
from  to  type  delay
    1   12   ES      0
    1    2   ES      0
    2   12   ES      0
    1    3   ES      0
    3   12   ES      0
    1    4   ES      0
    4   12   ES      0
    1    5   ES      0
    5   12   ES      0
    1    6   ES      0
    6   12   ES      0
    1    7   ES      0
    7   12   ES      0
    1    8   ES      0
    8   12   ES      0
    1    9   ES      0
    9   12   ES      0
    1   10   ES      0
   10   12   ES      0
    1   11   ES      0
   11   12   ES      0
    1   12   ES      0
    2    5   SS     11
    2    5   SE     -7
    2    5   ES    -11
    2    5   EE      1
    2    6   SS      4
    2    6   SE     -9
    2    6   ES     -2
    2    6   EE     -2
    3    5   SS      5
    3    5   SE      8
    3    5   ES     -6
    3    5   EE      7
    3   11   SS     -6
    3   11   SE      5
   11    3   SE      0
    3   11   ES      0
    3   11   EE      1
    4    7   SS     -9
    4    7   SE     -5
    4    7   ES     -6
    4    7   EE     -9
    5    9   SS     -1
    5    9   SE     -2
    5    9   ES     -7
    5    9   EE    -12
    5   10   SS      0
    5   10   SE      8
    5   10   ES     -2
    5   10   EE    -12
    6    7   SS      0
    6    7   SE     -6
    6    7   ES      2
    6    7   EE     -5
    6    9   SS    -10
    6    9   SE      9
    6    9   ES     -4
    6    9   EE      8
    6   10   SS      7
    6   10   SE     -1
    6   10   ES    -11
    6   10   EE    -10
    7    8   SS     -6
    7    8   SE      1
    7    8   ES     -3
    7    8   EE     12
    8   11   SS      7
    8   11   SE      3
    8   11   ES     -9
    8   11   EE     10
************************************************************************
